# 21279
param k := 6;
param n := 50;
param s := 1;
set E :=  (0,4) (0,18) (0,39) (1,20) (1,26) (1,47) (1,49) (2,13) (2,31) (2,46) (3,32) (3,33) (3,38) (4,45) (5,46) (6,45) (7,15) (7,41) (8,23) (8,39) (9,30) (10,12) (10,41) (11,27) (11,36) (11,37) (11,45) (12,29) (12,36) (12,38) (13,38) (14,37) (14,41) (15,35) (15,44) (15,47) (16,43) (17,19) (17,24) (17,41) (17,43) (17,48) (19,35) (19,39) (19,42) (19,44) (19,45) (19,49) (20,23) (20,28) (20,32) (21,31) (21,48) (22,24) (22,25) (23,38) (24,38) (24,46) (25,30) (26,34) (26,36) (28,49) (29,38) (29,47) (30,39) (31,41) (33,40) (33,45) (34,37) (34,42) (35,38) (36,42) (37,48) (38,48) (40,48) (42,47);